id: 1162
name: neos-738098
group: miplib2010
method: 2

Gurobi 7.0.2 (linux64, Matlab) logging started Mon Mar 26 10:15:37 2018


Gurobi 7.0.2 (linux64) logging started Mon Mar 26 10:15:37 2018

Optimize a model with 25849 rows, 9093 columns and 101360 nonzeros
Coefficient statistics:
  Matrix range     [1e+00, 1e+01]
  Objective range  [1e+00, 1e+00]
  Bounds range     [1e+00, 1e+00]
  RHS range        [1e+00, 6e+01]
Presolve removed 295 rows and 294 columns
Presolve time: 0.06s
Presolved: 25554 rows, 8799 columns, 100513 nonzeros

Ordering time: 0.03s

Barrier statistics:
 AA' NZ     : 7.086e+05
 Factor NZ  : 2.584e+06 (roughly 35 MBytes of memory)
 Factor Ops : 3.221e+08 (less than 1 second per iteration)
 Threads    : 4

                  Objective                Residual
Iter       Primal          Dual         Primal    Dual     Compl     Time
   0  -2.33046247e+03 -1.05232553e+03  8.37e+03 8.97e-01  2.35e+00     0s
   1  -1.68123353e+03 -4.10343305e+03  3.95e+03 1.21e+00  1.20e+00     0s
   2  -1.25540550e+03 -6.24113563e+03  1.13e+03 1.76e-01  3.79e-01     0s
   3  -1.20182697e+03 -5.36064801e+03  7.54e+02 1.23e-01  2.64e-01     0s
   4  -1.16229489e+03 -4.17050667e+03  4.33e+02 5.45e-02  1.57e-01     0s
   5  -1.11596177e+03 -3.27786185e+03  1.41e+02 3.08e-02  7.82e-02     0s
   6  -1.09533036e+03 -2.03280426e+03  2.24e+01 9.02e-03  2.61e-02     0s
   7  -1.09416120e+03 -1.23927128e+03  2.39e+00 1.17e-03  3.77e-03     0s
   8  -1.09844982e+03 -1.10212974e+03  4.64e-01 1.78e-15  9.51e-05     0s
   9  -1.09895677e+03 -1.09903230e+03  6.56e-04 1.33e-15  1.77e-06     0s
  10  -1.09899998e+03 -1.09900003e+03  2.62e-07 1.33e-15  1.16e-09     1s
  11  -1.09900000e+03 -1.09900000e+03  7.67e-12 1.78e-15  1.16e-12     1s

Barrier solved model in 11 iterations and 0.54 seconds
Optimal objective -1.09900000e+03

Crossover log...

       0 DPushes remaining with DInf 0.0000000e+00                 1s

    6347 PPushes remaining with PInf 0.0000000e+00                 1s
       0 PPushes remaining with PInf 0.0000000e+00                 1s

  Push phase complete: Pinf 0.0000000e+00, Dinf 6.8911543e-12      1s

Iteration    Objective       Primal Inf.    Dual Inf.      Time
    6455   -1.0990000e+03   0.000000e+00   0.000000e+00      1s
    6455   -1.0990000e+03   0.000000e+00   0.000000e+00      1s

Solved in 6455 iterations and 0.68 seconds
Optimal objective -1.099000000e+03
status: OPTIMAL
